32      4       
10      10      10      10      
0       0       0       0       0       3       2       5       31      
5       1       0       1       1       4       3       6       11      17      
3       0       1       4       4       2       4       30      
6       0       2       7       7       3       7       13      29      
6       3       3       3       0       1       7       
8       0       4       4       5       4       9       16      28      30      
3       3       0       3       2       2       8       16      
6       5       3       0       5       2       9       28      
2       3       0       9       4       1       10      
2       0       5       5       4       2       12      25      
9       3       2       5       0       4       15      16      25      29      
9       3       3       5       0       3       14      26      27      
6       0       6       5       3       3       15      16      25      
8       0       5       4       2       1       15      
3       5       5       5       0       1       18      
10      3       5       0       5       1       18      
1       0       4       3       7       5       21      23      24      26      29      
3       6       3       3       0       3       19      23      24      
4       4       3       5       0       1       20      
7       0       4       8       3       1       21      
7       0       2       3       3       1       22      
10      3       7       3       0       1       32      
5       3       2       3       0       1       32      
6       8       6       6       0       1       32      
5       6       0       4       5       1       32      
4       4       3       2       0       1       32      
1       2       7       3       0       1       32      
3       8       0       2       4       1       32      
9       3       0       2       3       1       32      
5       5       0       2       5       1       32      
9       3       7       3       0       1       32      
0       0       0       0       0       0       
